10
1 9
2 8
3 8
4 8
5 8
6 1
7 9
8 10
9 8
29
0 1 30
1 0 30
0 2 77
2 0 77
0 3 31
3 0 31
0 4 72
4 0 72
0 5 1
5 0 1
0 6 25
6 0 25
0 7 27
7 0 27
0 8 50
8 0 50
0 9 95
9 0 95
1 4 9
1 8 69
2 3 7
3 4 12
3 7 92
3 9 88
4 7 50
5 6 23
5 8 80
6 9 47
7 8 70
